data;
param T := 13250;
param N := 18;
param W := 
[0] 310
[1] 3535
[2] 5640
[3] 5080
[4] 6755
[5] 9570
[6] 4373
[7] 4756
[8] 851
[9] 7639
[10] 8378
[11] 1306
[12] 9712
[13] 1749
[14] 6964
[15] 1277
[16] 4892
[17] 7488
;
end;